(set-logic QF_UF)
(declare-fun A0 () Bool)
(declare-fun A1 () Bool)
(declare-fun A2 () Bool)
(declare-fun A3 () Bool)
(declare-fun A4 () Bool)
(declare-fun A5 () Bool)
(declare-fun A6 () Bool)
(declare-fun A7 () Bool)
(declare-fun A8 () Bool)
(declare-fun A9 () Bool)
(declare-fun A10 () Bool)
(declare-fun A11 () Bool)
(declare-fun A12 () Bool)
(declare-fun A13 () Bool)
(declare-fun A14 () Bool)
(declare-fun A15 () Bool)
(declare-fun A16 () Bool)
(declare-fun A17 () Bool)
(declare-fun A18 () Bool)
(declare-fun A19 () Bool)
(declare-fun A20 () Bool)
(declare-fun A21 () Bool)
(declare-fun A22 () Bool)
(declare-fun A24 () Bool)
(assert (let ((.def_0 (and A2 A7))) (let ((.def_1 (not A11))) (let ((.def_2 (or .def_1 A22))) (let ((.def_3 (= .def_2 .def_0))) (let ((.def_4 (or A1 A19))) (let ((.def_5 (not .def_4))) (let ((.def_6 (not A8))) (let ((.def_7 (or .def_6 A16))) (let ((.def_8 (and .def_7 .def_5))) (let ((.def_9 (and .def_8 .def_3))) (let ((.def_10 (or A15 A15))) (let ((.def_11 (not A4))) (let ((.def_12 (or .def_11 A13))) (let ((.def_13 (not .def_12))) (let ((.def_14 (or .def_13 .def_10))) (let ((.def_15 (not .def_14))) (let ((.def_16 (not A5))) (let ((.def_17 (and .def_16 A24))) (let ((.def_18 (not A0))) (let ((.def_19 (or .def_18 A13))) (let ((.def_20 (not .def_19))) (let ((.def_21 (or .def_20 .def_17))) (let ((.def_22 (and .def_21 .def_15))) (let ((.def_23 (not .def_22))) (let ((.def_24 (or .def_23 .def_9))) (let ((.def_25 (not A1))) (let ((.def_26 (= .def_25 A13))) (let ((.def_27 (not A18))) (let ((.def_28 (not A2))) (let ((.def_29 (= .def_28 .def_27))) (let ((.def_30 (not .def_29))) (let ((.def_31 (and .def_30 .def_26))) (let ((.def_32 (and A4 A0))) (let ((.def_33 (not A9))) (let ((.def_34 (or A2 .def_33))) (let ((.def_35 (not .def_34))) (let ((.def_36 (and .def_35 .def_32))) (let ((.def_37 (or .def_36 .def_31))) (let ((.def_38 (not .def_37))) (let ((.def_39 (not A6))) (let ((.def_40 (and .def_39 A4))) (let ((.def_41 (not .def_40))) (let ((.def_42 (= .def_33 A16))) (let ((.def_43 (not .def_42))) (let ((.def_44 (or .def_43 .def_41))) (let ((.def_45 (not .def_44))) (let ((.def_46 (not A22))) (let ((.def_47 (and .def_46 .def_18))) (let ((.def_48 (or .def_6 A18))) (let ((.def_49 (not .def_48))) (let ((.def_50 (and .def_49 .def_47))) (let ((.def_51 (and .def_50 .def_45))) (let ((.def_52 (not .def_51))) (let ((.def_53 (or .def_52 .def_38))) (let ((.def_54 (and .def_53 .def_24))) (let ((.def_55 (or A19 A6))) (let ((.def_56 (or A17 A12))) (let ((.def_57 (or .def_56 .def_55))) (let ((.def_58 (not .def_57))) (let ((.def_59 (or A0 A19))) (let ((.def_60 (not A16))) (let ((.def_61 (and .def_60 A21))) (let ((.def_62 (and .def_61 .def_59))) (let ((.def_63 (or .def_62 .def_58))) (let ((.def_64 (not .def_63))) (let ((.def_65 (and A14 A2))) (let ((.def_66 (not .def_65))) (let ((.def_67 (and A8 A13))) (let ((.def_68 (or .def_67 .def_66))) (let ((.def_69 (not A17))) (let ((.def_70 (= .def_60 .def_69))) (let ((.def_71 (not .def_70))) (let ((.def_72 (or .def_69 A19))) (let ((.def_73 (and .def_72 .def_71))) (let ((.def_74 (and .def_73 .def_68))) (let ((.def_75 (and .def_74 .def_64))) (let ((.def_76 (and .def_25 A13))) (let ((.def_77 (not .def_76))) (let ((.def_78 (and .def_11 .def_11))) (let ((.def_79 (not .def_78))) (let ((.def_80 (and .def_79 .def_77))) (let ((.def_81 (not .def_80))) (let ((.def_82 (= A3 A4))) (let ((.def_83 (not A15))) (let ((.def_84 (and .def_83 A20))) (let ((.def_85 (not .def_84))) (let ((.def_86 (or .def_85 .def_82))) (let ((.def_87 (= .def_86 .def_81))) (let ((.def_88 (not A10))) (let ((.def_89 (and A17 .def_88))) (let ((.def_90 (or .def_1 A13))) (let ((.def_91 (and .def_90 .def_89))) (let ((.def_92 (not .def_91))) (let ((.def_93 (and .def_69 .def_11))) (let ((.def_94 (or .def_25 A8))) (let ((.def_95 (not .def_94))) (let ((.def_96 (= .def_95 .def_93))) (let ((.def_97 (and .def_96 .def_92))) (let ((.def_98 (not .def_97))) (let ((.def_99 (or .def_98 .def_87))) (let ((.def_100 (not .def_99))) (let ((.def_101 (or .def_100 .def_75))) (let ((.def_102 (not .def_101))) (let ((.def_103 (and .def_102 .def_54))) .def_103)))))))))))))))))))))))))))))))))))))))))))))))))))))))))))))))))))))))))))))))))))))))))))))))))))))))))
(check-sat)
